p cnf 200 1110
-101 -36 0
-101 -20 0
-101 -57 0
-101 88 0
-101 -83 0
-101 33 0
-101 60 0
-101 -23 0
-101 -25 0
-101 -76 0
101 36 20 57 -88 83 -33 -60 23 25 76 0
-102 -79 0
-102 -16 0
-102 17 0
-102 54 0
-102 -98 0
-102 22 0
-102 2 0
-102 -1 0
-102 60 0
-102 40 0
102 79 16 -17 -54 98 -22 -2 1 -60 -40 0
-103 -60 0
-103 49 0
-103 26 0
-103 92 0
-103 -64 0
-103 -38 0
-103 31 0
-103 -8 0
-103 -61 0
-103 -14 0
103 60 -49 -26 -92 64 38 -31 8 61 14 0
-104 -28 0
-104 42 0
-104 -3 0
-104 76 0
-104 43 0
-104 -69 0
-104 -20 0
-104 54 0
-104 -2 0
-104 -59 0
104 28 -42 3 -76 -43 69 20 -54 2 59 0
-105 -91 0
-105 -100 0
-105 -87 0
-105 86 0
-105 -55 0
-105 11 0
-105 38 0
-105 1 0
-105 42 0
-105 58 0
105 91 100 87 -86 55 -11 -38 -1 -42 -58 0
-106 -15 0
-106 -78 0
-106 -72 0
-106 -61 0
-106 39 0
-106 24 0
-106 2 0
-106 54 0
-106 -88 0
-106 36 0
106 15 78 72 61 -39 -24 -2 -54 88 -36 0
-107 1 0
-107 -50 0
-107 -24 0
-107 17 0
-107 -19 0
-107 -79 0
-107 -20 0
-107 93 0
-107 -94 0
-107 8 0
107 -1 50 24 -17 19 79 20 -93 94 -8 0
-108 26 0
-108 90 0
-108 6 0
-108 5 0
-108 41 0
-108 -88 0
-108 49 0
-108 -58 0
-108 33 0
-108 4 0
108 -26 -90 -6 -5 -41 88 -49 58 -33 -4 0
-109 -54 0
-109 -33 0
-109 22 0
-109 48 0
-109 -24 0
-109 -43 0
-109 11 0
-109 35 0
-109 25 0
-109 -41 0
109 54 33 -22 -48 24 43 -11 -35 -25 41 0
-110 88 0
-110 76 0
-110 58 0
-110 -92 0
-110 -34 0
-110 55 0
-110 -3 0
-110 14 0
-110 72 0
-110 49 0
110 -88 -76 -58 92 34 -55 3 -14 -72 -49 0
101 102 103 104 105 106 107 108 109 110 0
-111 53 0
-111 77 0
-111 5 0
-111 60 0
-111 -30 0
-111 -84 0
-111 71 0
-111 59 0
-111 -3 0
-111 -54 0
111 -53 -77 -5 -60 30 84 -71 -59 3 54 0
-112 79 0
-112 46 0
-112 -4 0
-112 99 0
-112 -53 0
-112 84 0
-112 14 0
-112 38 0
-112 77 0
-112 -22 0
112 -79 -46 4 -99 53 -84 -14 -38 -77 22 0
-113 34 0
-113 66 0
-113 82 0
-113 84 0
-113 100 0
-113 -44 0
-113 -73 0
-113 -31 0
-113 94 0
-113 92 0
113 -34 -66 -82 -84 -100 44 73 31 -94 -92 0
-114 -40 0
-114 31 0
-114 8 0
-114 -17 0
-114 -41 0
-114 -60 0
-114 39 0
-114 16 0
-114 -86 0
-114 70 0
114 40 -31 -8 17 41 60 -39 -16 86 -70 0
-115 -4 0
-115 -93 0
-115 52 0
-115 6 0
-115 36 0
-115 30 0
-115 -38 0
-115 -81 0
-115 87 0
-115 65 0
115 4 93 -52 -6 -36 -30 38 81 -87 -65 0
-116 -48 0
-116 -54 0
-116 23 0
-116 99 0
-116 87 0
-116 -21 0
-116 -91 0
-116 69 0
-116 17 0
-116 36 0
116 48 54 -23 -99 -87 21 91 -69 -17 -36 0
-117 -94 0
-117 85 0
-117 -10 0
-117 9 0
-117 3 0
-117 75 0
-117 -24 0
-117 -43 0
-117 -45 0
-117 -77 0
117 94 -85 10 -9 -3 -75 24 43 45 77 0
-118 52 0
-118 -68 0
-118 10 0
-118 -49 0
-118 -47 0
-118 91 0
-118 -5 0
-118 -99 0
-118 1 0
-118 69 0
118 -52 68 -10 49 47 -91 5 99 -1 -69 0
-119 -61 0
-119 -9 0
-119 15 0
-119 65 0
-119 -1 0
-119 -70 0
-119 58 0
-119 57 0
-119 -67 0
-119 20 0
119 61 9 -15 -65 1 70 -58 -57 67 -20 0
-120 -36 0
-120 -64 0
-120 -55 0
-120 14 0
-120 -7 0
-120 -91 0
-120 48 0
-120 -2 0
-120 61 0
-120 -78 0
120 36 64 55 -14 7 91 -48 2 -61 78 0
111 112 113 114 115 116 117 118 119 120 0
-121 88 0
-121 -10 0
-121 -41 0
-121 -80 0
-121 -11 0
-121 18 0
-121 94 0
-121 73 0
-121 -67 0
-121 9 0
121 -88 10 41 80 11 -18 -94 -73 67 -9 0
-122 36 0
-122 -47 0
-122 40 0
-122 -100 0
-122 -96 0
-122 -27 0
-122 -32 0
-122 9 0
-122 85 0
-122 -46 0
122 -36 47 -40 100 96 27 32 -9 -85 46 0
-123 -11 0
-123 63 0
-123 50 0
-123 15 0
-123 -5 0
-123 -19 0
-123 84 0
-123 -59 0
-123 17 0
-123 47 0
123 11 -63 -50 -15 5 19 -84 59 -17 -47 0
-124 34 0
-124 -23 0
-124 -18 0
-124 7 0
-124 -66 0
-124 38 0
-124 6 0
-124 -77 0
-124 8 0
-124 100 0
124 -34 23 18 -7 66 -38 -6 77 -8 -100 0
-125 -97 0
-125 86 0
-125 -63 0
-125 24 0
-125 -52 0
-125 28 0
-125 -38 0
-125 -79 0
-125 -91 0
-125 16 0
125 97 -86 63 -24 52 -28 38 79 91 -16 0
-126 8 0
-126 -87 0
-126 -37 0
-126 63 0
-126 -77 0
-126 97 0
-126 -45 0
-126 43 0
-126 34 0
-126 76 0
126 -8 87 37 -63 77 -97 45 -43 -34 -76 0
-127 -53 0
-127 -32 0
-127 30 0
-127 -52 0
-127 28 0
-127 -25 0
-127 4 0
-127 -43 0
-127 81 0
-127 -94 0
127 53 32 -30 52 -28 25 -4 43 -81 94 0
-128 25 0
-128 -48 0
-128 -43 0
-128 1 0
-128 -9 0
-128 -100 0
-128 -80 0
-128 83 0
-128 -38 0
-128 -62 0
128 -25 48 43 -1 9 100 80 -83 38 62 0
-129 -88 0
-129 65 0
-129 18 0
-129 60 0
-129 -9 0
-129 -5 0
-129 16 0
-129 -14 0
-129 46 0
-129 96 0
129 88 -65 -18 -60 9 5 -16 14 -46 -96 0
-130 35 0
-130 -24 0
-130 -97 0
-130 -60 0
-130 -64 0
-130 -13 0
-130 -31 0
-130 28 0
-130 -78 0
-130 -72 0
130 -35 24 97 60 64 13 31 -28 78 72 0
121 122 123 124 125 126 127 128 129 130 0
-131 45 0
-131 77 0
-131 -15 0
-131 -79 0
-131 29 0
-131 53 0
-131 6 0
-131 1 0
-131 98 0
-131 2 0
131 -45 -77 15 79 -29 -53 -6 -1 -98 -2 0
-132 -15 0
-132 -47 0
-132 -58 0
-132 -60 0
-132 36 0
-132 -62 0
-132 77 0
-132 57 0
-132 16 0
-132 24 0
132 15 47 58 60 -36 62 -77 -57 -16 -24 0
-133 20 0
-133 -86 0
-133 54 0
-133 76 0
-133 -3 0
-133 16 0
-133 -7 0
-133 -17 0
-133 42 0
-133 61 0
133 -20 86 -54 -76 3 -16 7 17 -42 -61 0
-134 -82 0
-134 4 0
-134 77 0
-134 -54 0
-134 15 0
-134 -68 0
-134 -73 0
-134 24 0
-134 94 0
-134 55 0
134 82 -4 -77 54 -15 68 73 -24 -94 -55 0
-135 -15 0
-135 -64 0
-135 79 0
-135 80 0
-135 -20 0
-135 -17 0
-135 29 0
-135 -97 0
-135 1 0
-135 59 0
135 15 64 -79 -80 20 17 -29 97 -1 -59 0
-136 69 0
-136 -7 0
-136 46 0
-136 19 0
-136 -82 0
-136 -86 0
-136 41 0
-136 -51 0
-136 -43 0
-136 -76 0
136 -69 7 -46 -19 82 86 -41 51 43 76 0
-137 -69 0
-137 4 0
-137 2 0
-137 51 0
-137 -97 0
-137 -96 0
-137 65 0
-137 81 0
-137 8 0
-137 -75 0
137 69 -4 -2 -51 97 96 -65 -81 -8 75 0
-138 97 0
-138 -25 0
-138 53 0
-138 -4 0
-138 33 0
-138 85 0
-138 -54 0
-138 67 0
-138 -41 0
-138 75 0
138 -97 25 -53 4 -33 -85 54 -67 41 -75 0
-139 -98 0
-139 94 0
-139 89 0
-139 90 0
-139 44 0
-139 -81 0
-139 84 0
-139 40 0
-139 47 0
-139 -64 0
139 98 -94 -89 -90 -44 81 -84 -40 -47 64 0
-140 -15 0
-140 63 0
-140 98 0
-140 -49 0
-140 17 0
-140 -9 0
-140 58 0
-140 80 0
-140 82 0
-140 22 0
140 15 -63 -98 49 -17 9 -58 -80 -82 -22 0
131 132 133 134 135 136 137 138 139 140 0
-141 63 0
-141 -91 0
-141 -10 0
-141 26 0
-141 76 0
-141 79 0
-141 55 0
-141 -39 0
-141 -99 0
-141 96 0
141 -63 91 10 -26 -76 -79 -55 39 99 -96 0
-142 -80 0
-142 15 0
-142 18 0
-142 45 0
-142 -14 0
-142 -27 0
-142 -77 0
-142 -28 0
-142 -16 0
-142 74 0
142 80 -15 -18 -45 14 27 77 28 16 -74 0
-143 -6 0
-143 30 0
-143 -38 0
-143 -14 0
-143 48 0
-143 -13 0
-143 91 0
-143 -54 0
-143 7 0
-143 81 0
143 6 -30 38 14 -48 13 -91 54 -7 -81 0
-144 -4 0
-144 -92 0
-144 -51 0
-144 49 0
-144 40 0
-144 -41 0
-144 -14 0
-144 -17 0
-144 -44 0
-144 93 0
144 4 92 51 -49 -40 41 14 17 44 -93 0
-145 61 0
-145 40 0
-145 -50 0
-145 82 0
-145 -31 0
-145 9 0
-145 3 0
-145 -10 0
-145 -42 0
-145 -15 0
145 -61 -40 50 -82 31 -9 -3 10 42 15 0
-146 91 0
-146 -68 0
-146 67 0
-146 26 0
-146 -25 0
-146 32 0
-146 11 0
-146 -45 0
-146 -93 0
-146 -100 0
146 -91 68 -67 -26 25 -32 -11 45 93 100 0
-147 45 0
-147 24 0
-147 -20 0
-147 67 0
-147 -37 0
-147 41 0
-147 96 0
-147 -1 0
-147 53 0
-147 -36 0
147 -45 -24 20 -67 37 -41 -96 1 -53 36 0
-148 58 0
-148 -3 0
-148 23 0
-148 81 0
-148 70 0
-148 14 0
-148 87 0
-148 -30 0
-148 -11 0
-148 85 0
148 -58 3 -23 -81 -70 -14 -87 30 11 -85 0
-149 52 0
-149 87 0
-149 76 0
-149 -41 0
-149 -68 0
-149 -48 0
-149 -71 0
-149 2 0
-149 78 0
-149 -59 0
149 -52 -87 -76 41 68 48 71 -2 -78 59 0
-150 -63 0
-150 -92 0
-150 73 0
-150 12 0
-150 99 0
-150 29 0
-150 -35 0
-150 2 0
-150 -7 0
-150 39 0
150 63 92 -73 -12 -99 -29 35 -2 7 -39 0
141 142 143 144 145 146 147 148 149 150 0
-151 -11 0
-151 -86 0
-151 54 0
-151 15 0
-151 -89 0
-151 -38 0
-151 65 0
-151 79 0
-151 -99 0
-151 31 0
151 11 86 -54 -15 89 38 -65 -79 99 -31 0
-152 -66 0
-152 -40 0
-152 62 0
-152 -29 0
-152 -47 0
-152 38 0
-152 23 0
-152 50 0
-152 61 0
-152 -82 0
152 66 40 -62 29 47 -38 -23 -50 -61 82 0
-153 31 0
-153 -48 0
-153 35 0
-153 -96 0
-153 82 0
-153 43 0
-153 -1 0
-153 -37 0
-153 42 0
-153 -45 0
153 -31 48 -35 96 -82 -43 1 37 -42 45 0
-154 -31 0
-154 57 0
-154 46 0
-154 -63 0
-154 2 0
-154 -99 0
-154 5 0
-154 54 0
-154 55 0
-154 77 0
154 31 -57 -46 63 -2 99 -5 -54 -55 -77 0
-155 -90 0
-155 52 0
-155 93 0
-155 71 0
-155 -35 0
-155 -19 0
-155 77 0
-155 -28 0
-155 -25 0
-155 -62 0
155 90 -52 -93 -71 35 19 -77 28 25 62 0
-156 -12 0
-156 -79 0
-156 95 0
-156 93 0
-156 -78 0
-156 17 0
-156 68 0
-156 91 0
-156 31 0
-156 13 0
156 12 79 -95 -93 78 -17 -68 -91 -31 -13 0
-157 -23 0
-157 3 0
-157 87 0
-157 73 0
-157 30 0
-157 34 0
-157 -92 0
-157 -19 0
-157 74 0
-157 -52 0
157 23 -3 -87 -73 -30 -34 92 19 -74 52 0
-158 -24 0
-158 -79 0
-158 -10 0
-158 36 0
-158 -54 0
-158 -26 0
-158 50 0
-158 30 0
-158 9 0
-158 18 0
158 24 79 10 -36 54 26 -50 -30 -9 -18 0
-159 27 0
-159 16 0
-159 78 0
-159 -18 0
-159 85 0
-159 -56 0
-159 32 0
-159 -37 0
-159 -86 0
-159 41 0
159 -27 -16 -78 18 -85 56 -32 37 86 -41 0
-160 56 0
-160 27 0
-160 -18 0
-160 47 0
-160 -52 0
-160 45 0
-160 35 0
-160 2 0
-160 -98 0
-160 91 0
160 -56 -27 18 -47 52 -45 -35 -2 98 -91 0
151 152 153 154 155 156 157 158 159 160 0
-161 40 0
-161 -63 0
-161 -6 0
-161 33 0
-161 56 0
-161 -69 0
-161 18 0
-161 -24 0
-161 -73 0
-161 1 0
161 -40 63 6 -33 -56 69 -18 24 73 -1 0
-162 68 0
-162 61 0
-162 -70 0
-162 -91 0
-162 -78 0
-162 36 0
-162 -44 0
-162 -67 0
-162 82 0
-162 13 0
162 -68 -61 70 91 78 -36 44 67 -82 -13 0
-163 -27 0
-163 35 0
-163 -89 0
-163 37 0
-163 -1 0
-163 -76 0
-163 -57 0
-163 7 0
-163 86 0
-163 92 0
163 27 -35 89 -37 1 76 57 -7 -86 -92 0
-164 -56 0
-164 -14 0
-164 -100 0
-164 66 0
-164 37 0
-164 -23 0
-164 86 0
-164 15 0
-164 84 0
-164 -77 0
164 56 14 100 -66 -37 23 -86 -15 -84 77 0
-165 15 0
-165 -29 0
-165 55 0
-165 35 0
-165 78 0
-165 -88 0
-165 -84 0
-165 -54 0
-165 96 0
-165 -42 0
165 -15 29 -55 -35 -78 88 84 54 -96 42 0
-166 46 0
-166 73 0
-166 -7 0
-166 68 0
-166 90 0
-166 -82 0
-166 -51 0
-166 81 0
-166 18 0
-166 -59 0
166 -46 -73 7 -68 -90 82 51 -81 -18 59 0
-167 44 0
-167 59 0
-167 -46 0
-167 75 0
-167 45 0
-167 -47 0
-167 27 0
-167 61 0
-167 41 0
-167 79 0
167 -44 -59 46 -75 -45 47 -27 -61 -41 -79 0
-168 -8 0
-168 90 0
-168 -61 0
-168 -27 0
-168 13 0
-168 57 0
-168 78 0
-168 -86 0
-168 -34 0
-168 35 0
168 8 -90 61 27 -13 -57 -78 86 34 -35 0
-169 -50 0
-169 -91 0
-169 -54 0
-169 -24 0
-169 88 0
-169 -19 0
-169 -94 0
-169 -46 0
-169 -1 0
-169 31 0
169 50 91 54 24 -88 19 94 46 1 -31 0
-170 72 0
-170 71 0
-170 19 0
-170 -64 0
-170 -87 0
-170 17 0
-170 3 0
-170 -97 0
-170 35 0
-170 -47 0
170 -72 -71 -19 64 87 -17 -3 97 -35 47 0
161 162 163 164 165 166 167 168 169 170 0
-171 -3 0
-171 37 0
-171 -71 0
-171 47 0
-171 -100 0
-171 -62 0
-171 41 0
-171 -79 0
-171 34 0
-171 86 0
171 3 -37 71 -47 100 62 -41 79 -34 -86 0
-172 36 0
-172 -91 0
-172 85 0
-172 1 0
-172 -60 0
-172 59 0
-172 22 0
-172 54 0
-172 -74 0
-172 -35 0
172 -36 91 -85 -1 60 -59 -22 -54 74 35 0
-173 -94 0
-173 45 0
-173 3 0
-173 -58 0
-173 -22 0
-173 72 0
-173 81 0
-173 27 0
-173 51 0
-173 -8 0
173 94 -45 -3 58 22 -72 -81 -27 -51 8 0
-174 43 0
-174 -33 0
-174 -44 0
-174 34 0
-174 -90 0
-174 60 0
-174 68 0
-174 12 0
-174 4 0
-174 29 0
174 -43 33 44 -34 90 -60 -68 -12 -4 -29 0
-175 -75 0
-175 -47 0
-175 -6 0
-175 -92 0
-175 -70 0
-175 -81 0
-175 -71 0
-175 24 0
-175 69 0
-175 -10 0
175 75 47 6 92 70 81 71 -24 -69 10 0
-176 84 0
-176 -40 0
-176 -22 0
-176 56 0
-176 87 0
-176 54 0
-176 49 0
-176 -32 0
-176 34 0
-176 60 0
176 -84 40 22 -56 -87 -54 -49 32 -34 -60 0
-177 -28 0
-177 -64 0
-177 31 0
-177 -44 0
-177 -66 0
-177 61 0
-177 -79 0
-177 -81 0
-177 -89 0
-177 -12 0
177 28 64 -31 44 66 -61 79 81 89 12 0
-178 -53 0
-178 42 0
-178 -65 0
-178 79 0
-178 78 0
-178 -60 0
-178 -16 0
-178 -6 0
-178 64 0
-178 -61 0
178 53 -42 65 -79 -78 60 16 6 -64 61 0
-179 77 0
-179 -60 0
-179 84 0
-179 -25 0
-179 -7 0
-179 57 0
-179 2 0
-179 93 0
-179 -34 0
-179 94 0
179 -77 60 -84 25 7 -57 -2 -93 34 -94 0
-180 -73 0
-180 3 0
-180 38 0
-180 -15 0
-180 -85 0
-180 11 0
-180 -12 0
-180 -82 0
-180 -19 0
-180 94 0
180 73 -3 -38 15 85 -11 12 82 19 -94 0
171 172 173 174 175 176 177 178 179 180 0
-181 -39 0
-181 -28 0
-181 -37 0
-181 76 0
-181 -27 0
-181 43 0
-181 30 0
-181 75 0
-181 -82 0
-181 -73 0
181 39 28 37 -76 27 -43 -30 -75 82 73 0
-182 25 0
-182 99 0
-182 -79 0
-182 98 0
-182 66 0
-182 -82 0
-182 -48 0
-182 97 0
-182 91 0
-182 -52 0
182 -25 -99 79 -98 -66 82 48 -97 -91 52 0
-183 17 0
-183 -14 0
-183 -42 0
-183 -26 0
-183 28 0
-183 -48 0
-183 86 0
-183 -79 0
-183 96 0
-183 -62 0
183 -17 14 42 26 -28 48 -86 79 -96 62 0
-184 -23 0
-184 -57 0
-184 -93 0
-184 3 0
-184 -8 0
-184 94 0
-184 44 0
-184 -63 0
-184 -22 0
-184 17 0
184 23 57 93 -3 8 -94 -44 63 22 -17 0
-185 -72 0
-185 13 0
-185 -48 0
-185 -40 0
-185 -46 0
-185 21 0
-185 22 0
-185 -33 0
-185 -82 0
-185 -89 0
185 72 -13 48 40 46 -21 -22 33 82 89 0
-186 -24 0
-186 76 0
-186 20 0
-186 50 0
-186 54 0
-186 -100 0
-186 3 0
-186 5 0
-186 -35 0
-186 -43 0
186 24 -76 -20 -50 -54 100 -3 -5 35 43 0
-187 -14 0
-187 60 0
-187 -43 0
-187 -48 0
-187 -71 0
-187 -32 0
-187 -98 0
-187 -56 0
-187 -81 0
-187 38 0
187 14 -60 43 48 71 32 98 56 81 -38 0
-188 61 0
-188 -63 0
-188 -32 0
-188 -92 0
-188 46 0
-188 26 0
-188 -73 0
-188 58 0
-188 98 0
-188 65 0
188 -61 63 32 92 -46 -26 73 -58 -98 -65 0
-189 -28 0
-189 47 0
-189 -95 0
-189 11 0
-189 12 0
-189 67 0
-189 -48 0
-189 78 0
-189 19 0
-189 33 0
189 28 -47 95 -11 -12 -67 48 -78 -19 -33 0
-190 -10 0
-190 98 0
-190 24 0
-190 92 0
-190 -50 0
-190 3 0
-190 -90 0
-190 -35 0
-190 -87 0
-190 -53 0
190 10 -98 -24 -92 50 -3 90 35 87 53 0
181 182 183 184 185 186 187 188 189 190 0
-191 -48 0
-191 -43 0
-191 -66 0
-191 34 0
-191 21 0
-191 -92 0
-191 -33 0
-191 51 0
-191 -80 0
-191 -8 0
191 48 43 66 -34 -21 92 33 -51 80 8 0
-192 88 0
-192 -7 0
-192 79 0
-192 31 0
-192 -98 0
-192 32 0
-192 -58 0
-192 47 0
-192 -45 0
-192 41 0
192 -88 7 -79 -31 98 -32 58 -47 45 -41 0
-193 97 0
-193 -24 0
-193 -79 0
-193 20 0
-193 11 0
-193 74 0
-193 -92 0
-193 3 0
-193 -46 0
-193 -35 0
193 -97 24 79 -20 -11 -74 92 -3 46 35 0
-194 20 0
-194 -63 0
-194 74 0
-194 -26 0
-194 15 0
-194 49 0
-194 73 0
-194 24 0
-194 -6 0
-194 66 0
194 -20 63 -74 26 -15 -49 -73 -24 6 -66 0
-195 73 0
-195 -3 0
-195 94 0
-195 -25 0
-195 87 0
-195 -48 0
-195 50 0
-195 -54 0
-195 28 0
-195 -67 0
195 -73 3 -94 25 -87 48 -50 54 -28 67 0
-196 -11 0
-196 35 0
-196 64 0
-196 95 0
-196 15 0
-196 -51 0
-196 56 0
-196 9 0
-196 76 0
-196 82 0
196 11 -35 -64 -95 -15 51 -56 -9 -76 -82 0
-197 -29 0
-197 34 0
-197 -83 0
-197 1 0
-197 -100 0
-197 -3 0
-197 91 0
-197 -61 0
-197 26 0
-197 14 0
197 29 -34 83 -1 100 3 -91 61 -26 -14 0
-198 25 0
-198 -17 0
-198 -7 0
-198 -16 0
-198 32 0
-198 34 0
-198 84 0
-198 -6 0
-198 -56 0
-198 -24 0
198 -25 17 7 16 -32 -34 -84 6 56 24 0
-199 -23 0
-199 -53 0
-199 36 0
-199 -63 0
-199 91 0
-199 68 0
-199 -10 0
-199 65 0
-199 -94 0
-199 75 0
199 23 53 -36 63 -91 -68 10 -65 94 -75 0
-200 15 0
-200 60 0
-200 44 0
-200 75 0
-200 33 0
-200 95 0
-200 100 0
-200 -58 0
-200 -50 0
-200 -63 0
200 -15 -60 -44 -75 -33 -95 -100 58 50 63 0
191 192 193 194 195 196 197 198 199 200 0
